Traveling Salesman Problem/TSP_generados/Aleatorio1621103309_9.tsp
NAME: Aleatorio1621103309_9.tsp
COMMENT: Randomly generated scenario
TYPE: TSP
DIMENSION: 9
EDGE_WEIGHT_TYPE: ATT
NODE_COORD_SECTION
1 30.28 36.81
2 20.69 16.17
3 12.51 23.39
4 17.29 39.41
5 14.22 6.21
6 1.59 14.57
7 5.53 13.23
8 4.7 13.31
9 7.86 23.22
