Traveling Salesman Problem/TSP_generados/Aleatorio1621103309_9.opt.tour
NAME: Aleatorio1621103309_9.opt.tour
COMMENT: Optimal solution for Aleatorio1621103309_9 (95.29881365336452)
TYPE: TOUR
DIMENSION: 9
TOUR_SECTION
1 4 3 9 6 8 7 5 2
-1
EOF
